SYSTEM=HfS2
 
ISMEAR=0

LWAVE = .FALSE.
LORBIT= 11
LCHARG = .FALSE.
#ICHARG=11

LHFCALC= .TRUE.
HFSCREEN=0.2
ALGO=Damped
TIME=0.4
#PREFOCK=FAST
LDIAG=.TRUE.
NKRED=2

GGA=PS

PREC= Accurate
ENCUT = 500 
EDIFF=1e-7 
NELMIN=3
NBAND=24

ISYM=0
ISIF=0
IBRION=-1 #NOTE IBRION=1 when close to min, 2 further from it.
NSW=0



NCORE=4
