Automatically generated mesh
    538 
Reciprocal lattice
    0.00000000000000    0.00000000000000    0.00000000000000             1
    0.08333333333333   -0.00000000000000    0.00000000000000             4
    0.16666666666667    0.00000000000000    0.00000000000000             4
    0.25000000000000    0.00000000000000    0.00000000000000             4
    0.33333333333333   -0.00000000000000    0.00000000000000             4
    0.41666666666667    0.00000000000000    0.00000000000000             4
    0.50000000000000    0.00000000000000    0.00000000000000             2
    0.00000000000000    0.08333333333333    0.00000000000000             2
    0.08333333333333    0.08333333333333    0.00000000000000             4
    0.16666666666667    0.08333333333333    0.00000000000000             4
    0.25000000000000    0.08333333333333    0.00000000000000             4
    0.33333333333333    0.08333333333333    0.00000000000000             4
    0.41666666666667    0.08333333333333    0.00000000000000             4
    0.50000000000000    0.08333333333333    0.00000000000000             4
   -0.41666666666667    0.08333333333333    0.00000000000000             4
   -0.33333333333333    0.08333333333333    0.00000000000000             4
   -0.25000000000000    0.08333333333333    0.00000000000000             4
   -0.16666666666667    0.08333333333333    0.00000000000000             2
    0.00000000000000    0.16666666666667    0.00000000000000             2
    0.08333333333333    0.16666666666667    0.00000000000000             4
    0.16666666666667    0.16666666666667    0.00000000000000             4
    0.25000000000000    0.16666666666667    0.00000000000000             4
    0.33333333333333    0.16666666666667    0.00000000000000             4
    0.41666666666667    0.16666666666667    0.00000000000000             4
    0.50000000000000    0.16666666666667    0.00000000000000             4
   -0.41666666666667    0.16666666666667    0.00000000000000             4
   -0.33333333333333    0.16666666666667    0.00000000000000             2
    0.00000000000000    0.25000000000000    0.00000000000000             2
    0.08333333333333    0.25000000000000    0.00000000000000             4
    0.16666666666667    0.25000000000000    0.00000000000000             4
    0.25000000000000    0.25000000000000    0.00000000000000             4
    0.33333333333333    0.25000000000000    0.00000000000000             4
    0.41666666666667    0.25000000000000    0.00000000000000             4
    0.50000000000000    0.25000000000000    0.00000000000000             2
    0.00000000000000    0.33333333333333    0.00000000000000             2
    0.08333333333333    0.33333333333333    0.00000000000000             4
    0.16666666666667    0.33333333333333    0.00000000000000             4
    0.25000000000000    0.33333333333333    0.00000000000000             4
    0.33333333333333    0.33333333333333    0.00000000000000             2
    0.00000000000000    0.41666666666667    0.00000000000000             2
    0.08333333333333    0.41666666666667    0.00000000000000             4
    0.16666666666667    0.41666666666667    0.00000000000000             2
    0.00000000000000    0.50000000000000    0.00000000000000             1
    0.00000000000000    0.00000000000000    0.16666666666667             2
    0.08333333333333   -0.00000000000000    0.16666666666667             4
    0.16666666666667    0.00000000000000    0.16666666666667             4
    0.25000000000000    0.00000000000000    0.16666666666667             4
    0.33333333333333   -0.00000000000000    0.16666666666667             4
    0.41666666666667    0.00000000000000    0.16666666666667             4
    0.50000000000000    0.00000000000000    0.16666666666667             4
   -0.41666666666667    0.00000000000000    0.16666666666667             4
   -0.33333333333333   -0.00000000000000    0.16666666666667             4
   -0.25000000000000    0.00000000000000    0.16666666666667             4
   -0.16666666666667   -0.00000000000000    0.16666666666667             4
   -0.08333333333333    0.00000000000000    0.16666666666667             4
    0.00000000000000    0.08333333333333    0.16666666666667             2
    0.08333333333333    0.08333333333333    0.16666666666667             4
    0.16666666666667    0.08333333333333    0.16666666666667             4
    0.25000000000000    0.08333333333333    0.16666666666667             4
    0.33333333333333    0.08333333333333    0.16666666666667             4
    0.41666666666667    0.08333333333333    0.16666666666667             4
    0.50000000000000    0.08333333333333    0.16666666666667             4
   -0.41666666666667    0.08333333333333    0.16666666666667             4
   -0.33333333333333    0.08333333333333    0.16666666666667             4
   -0.25000000000000    0.08333333333333    0.16666666666667             4
   -0.16666666666667    0.08333333333333    0.16666666666667             4
    0.00000000000000    0.16666666666667    0.16666666666667             2
    0.08333333333333    0.16666666666667    0.16666666666667             4
    0.16666666666667    0.16666666666667    0.16666666666667             4
    0.25000000000000    0.16666666666667    0.16666666666667             4
    0.33333333333333    0.16666666666667    0.16666666666667             4
    0.41666666666667    0.16666666666667    0.16666666666667             4
    0.50000000000000    0.16666666666667    0.16666666666667             4
   -0.41666666666667    0.16666666666667    0.16666666666667             4
   -0.33333333333333    0.16666666666667    0.16666666666667             4
   -0.25000000000000    0.16666666666667    0.16666666666667             4
    0.00000000000000    0.25000000000000    0.16666666666667             2
    0.08333333333333    0.25000000000000    0.16666666666667             4
    0.16666666666667    0.25000000000000    0.16666666666667             4
    0.25000000000000    0.25000000000000    0.16666666666667             4
    0.33333333333333    0.25000000000000    0.16666666666667             4
    0.41666666666667    0.25000000000000    0.16666666666667             4
    0.50000000000000    0.25000000000000    0.16666666666667             4
   -0.41666666666667    0.25000000000000    0.16666666666667             4
   -0.33333333333333    0.25000000000000    0.16666666666667             4
    0.00000000000000    0.33333333333333    0.16666666666667             2
    0.08333333333333    0.33333333333333    0.16666666666667             4
    0.16666666666667    0.33333333333333    0.16666666666667             4
    0.25000000000000    0.33333333333333    0.16666666666667             4
    0.33333333333333    0.33333333333333    0.16666666666667             4
    0.41666666666667    0.33333333333333    0.16666666666667             4
    0.50000000000000    0.33333333333333    0.16666666666667             4
   -0.41666666666667    0.33333333333333    0.16666666666667             4
    0.00000000000000    0.41666666666667    0.16666666666667             2
    0.08333333333333    0.41666666666667    0.16666666666667             4
    0.16666666666667    0.41666666666667    0.16666666666667             4
    0.25000000000000    0.41666666666667    0.16666666666667             4
    0.33333333333333    0.41666666666667    0.16666666666667             4
    0.41666666666667    0.41666666666667    0.16666666666667             4
    0.50000000000000    0.41666666666667    0.16666666666667             4
    0.00000000000000    0.50000000000000    0.16666666666667             2
    0.08333333333333    0.50000000000000    0.16666666666667             4
    0.16666666666667    0.50000000000000    0.16666666666667             4
    0.25000000000000    0.50000000000000    0.16666666666667             4
    0.33333333333333    0.50000000000000    0.16666666666667             4
    0.41666666666667    0.50000000000000    0.16666666666667             4
    0.00000000000000   -0.41666666666667    0.16666666666667             2
    0.08333333333333   -0.41666666666667    0.16666666666667             4
    0.16666666666667   -0.41666666666667    0.16666666666667             4
    0.25000000000000   -0.41666666666667    0.16666666666667             4
    0.33333333333333   -0.41666666666667    0.16666666666667             4
    0.00000000000000   -0.33333333333333    0.16666666666667             2
    0.08333333333333   -0.33333333333333    0.16666666666667             4
    0.16666666666667   -0.33333333333333    0.16666666666667             4
    0.25000000000000   -0.33333333333333    0.16666666666667             4
    0.00000000000000   -0.25000000000000    0.16666666666667             2
    0.08333333333333   -0.25000000000000    0.16666666666667             4
    0.16666666666667   -0.25000000000000    0.16666666666667             4
    0.00000000000000   -0.16666666666667    0.16666666666667             2
    0.08333333333333   -0.16666666666667    0.16666666666667             4
    0.00000000000000   -0.08333333333333    0.16666666666667             2
    0.00000000000000    0.00000000000000    0.33333333333333             2
    0.08333333333333   -0.00000000000000    0.33333333333333             4
    0.16666666666667    0.00000000000000    0.33333333333333             4
    0.25000000000000    0.00000000000000    0.33333333333333             4
    0.33333333333333   -0.00000000000000    0.33333333333333             4
    0.41666666666667    0.00000000000000    0.33333333333333             4
    0.50000000000000    0.00000000000000    0.33333333333333             4
   -0.41666666666667    0.00000000000000    0.33333333333333             4
   -0.33333333333333   -0.00000000000000    0.33333333333333             4
   -0.25000000000000    0.00000000000000    0.33333333333333             4
   -0.16666666666667   -0.00000000000000    0.33333333333333             4
   -0.08333333333333    0.00000000000000    0.33333333333333             4
    0.00000000000000    0.08333333333333    0.33333333333333             2
    0.08333333333333    0.08333333333333    0.33333333333333             4
    0.16666666666667    0.08333333333333    0.33333333333333             4
    0.25000000000000    0.08333333333333    0.33333333333333             4
    0.33333333333333    0.08333333333333    0.33333333333333             4
    0.41666666666667    0.08333333333333    0.33333333333333             4
    0.50000000000000    0.08333333333333    0.33333333333333             4
   -0.41666666666667    0.08333333333333    0.33333333333333             4
   -0.33333333333333    0.08333333333333    0.33333333333333             4
   -0.25000000000000    0.08333333333333    0.33333333333333             4
   -0.16666666666667    0.08333333333333    0.33333333333333             4
    0.00000000000000    0.16666666666667    0.33333333333333             2
    0.08333333333333    0.16666666666667    0.33333333333333             4
    0.16666666666667    0.16666666666667    0.33333333333333             4
    0.25000000000000    0.16666666666667    0.33333333333333             4
    0.33333333333333    0.16666666666667    0.33333333333333             4
    0.41666666666667    0.16666666666667    0.33333333333333             4
    0.50000000000000    0.16666666666667    0.33333333333333             4
   -0.41666666666667    0.16666666666667    0.33333333333333             4
   -0.33333333333333    0.16666666666667    0.33333333333333             4
   -0.25000000000000    0.16666666666667    0.33333333333333             4
    0.00000000000000    0.25000000000000    0.33333333333333             2
    0.08333333333333    0.25000000000000    0.33333333333333             4
    0.16666666666667    0.25000000000000    0.33333333333333             4
    0.25000000000000    0.25000000000000    0.33333333333333             4
    0.33333333333333    0.25000000000000    0.33333333333333             4
    0.41666666666667    0.25000000000000    0.33333333333333             4
    0.50000000000000    0.25000000000000    0.33333333333333             4
   -0.41666666666667    0.25000000000000    0.33333333333333             4
   -0.33333333333333    0.25000000000000    0.33333333333333             4
    0.00000000000000    0.33333333333333    0.33333333333333             2
    0.08333333333333    0.33333333333333    0.33333333333333             4
    0.16666666666667    0.33333333333333    0.33333333333333             4
    0.25000000000000    0.33333333333333    0.33333333333333             4
    0.33333333333333    0.33333333333333    0.33333333333333             4
    0.41666666666667    0.33333333333333    0.33333333333333             4
    0.50000000000000    0.33333333333333    0.33333333333333             4
   -0.41666666666667    0.33333333333333    0.33333333333333             4
    0.00000000000000    0.41666666666667    0.33333333333333             2
    0.08333333333333    0.41666666666667    0.33333333333333             4
    0.16666666666667    0.41666666666667    0.33333333333333             4
    0.25000000000000    0.41666666666667    0.33333333333333             4
    0.33333333333333    0.41666666666667    0.33333333333333             4
    0.41666666666667    0.41666666666667    0.33333333333333             4
    0.50000000000000    0.41666666666667    0.33333333333333             4
    0.00000000000000    0.50000000000000    0.33333333333333             2
    0.08333333333333    0.50000000000000    0.33333333333333             4
    0.16666666666667    0.50000000000000    0.33333333333333             4
    0.25000000000000    0.50000000000000    0.33333333333333             4
    0.33333333333333    0.50000000000000    0.33333333333333             4
    0.41666666666667    0.50000000000000    0.33333333333333             4
    0.00000000000000   -0.41666666666667    0.33333333333333             2
    0.08333333333333   -0.41666666666667    0.33333333333333             4
    0.16666666666667   -0.41666666666667    0.33333333333333             4
    0.25000000000000   -0.41666666666667    0.33333333333333             4
    0.33333333333333   -0.41666666666667    0.33333333333333             4
    0.00000000000000   -0.33333333333333    0.33333333333333             2
    0.08333333333333   -0.33333333333333    0.33333333333333             4
    0.16666666666667   -0.33333333333333    0.33333333333333             4
    0.25000000000000   -0.33333333333333    0.33333333333333             4
    0.00000000000000   -0.25000000000000    0.33333333333333             2
    0.08333333333333   -0.25000000000000    0.33333333333333             4
    0.16666666666667   -0.25000000000000    0.33333333333333             4
    0.00000000000000   -0.16666666666667    0.33333333333333             2
    0.08333333333333   -0.16666666666667    0.33333333333333             4
    0.00000000000000   -0.08333333333333    0.33333333333333             2
    0.00000000000000    0.00000000000000    0.50000000000000             1
    0.08333333333333   -0.00000000000000    0.50000000000000             4
    0.16666666666667    0.00000000000000    0.50000000000000             4
    0.25000000000000    0.00000000000000    0.50000000000000             4
    0.33333333333333   -0.00000000000000    0.50000000000000             4
    0.41666666666667    0.00000000000000    0.50000000000000             4
    0.50000000000000    0.00000000000000    0.50000000000000             2
    0.00000000000000    0.08333333333333    0.50000000000000             2
    0.08333333333333    0.08333333333333    0.50000000000000             4
    0.16666666666667    0.08333333333333    0.50000000000000             4
    0.25000000000000    0.08333333333333    0.50000000000000             4
    0.33333333333333    0.08333333333333    0.50000000000000             4
    0.41666666666667    0.08333333333333    0.50000000000000             4
    0.50000000000000    0.08333333333333    0.50000000000000             4
   -0.41666666666667    0.08333333333333    0.50000000000000             4
   -0.33333333333333    0.08333333333333    0.50000000000000             4
   -0.25000000000000    0.08333333333333    0.50000000000000             4
   -0.16666666666667    0.08333333333333    0.50000000000000             2
    0.00000000000000    0.16666666666667    0.50000000000000             2
    0.08333333333333    0.16666666666667    0.50000000000000             4
    0.16666666666667    0.16666666666667    0.50000000000000             4
    0.25000000000000    0.16666666666667    0.50000000000000             4
    0.33333333333333    0.16666666666667    0.50000000000000             4
    0.41666666666667    0.16666666666667    0.50000000000000             4
    0.50000000000000    0.16666666666667    0.50000000000000             4
   -0.41666666666667    0.16666666666667    0.50000000000000             4
   -0.33333333333333    0.16666666666667    0.50000000000000             2
    0.00000000000000    0.25000000000000    0.50000000000000             2
    0.08333333333333    0.25000000000000    0.50000000000000             4
    0.16666666666667    0.25000000000000    0.50000000000000             4
    0.25000000000000    0.25000000000000    0.50000000000000             4
    0.33333333333333    0.25000000000000    0.50000000000000             4
    0.41666666666667    0.25000000000000    0.50000000000000             4
    0.50000000000000    0.25000000000000    0.50000000000000             2
    0.00000000000000    0.33333333333333    0.50000000000000             2
    0.08333333333333    0.33333333333333    0.50000000000000             4
    0.16666666666667    0.33333333333333    0.50000000000000             4
    0.25000000000000    0.33333333333333    0.50000000000000             4
    0.33333333333333    0.33333333333333    0.50000000000000             2
    0.00000000000000    0.41666666666667    0.50000000000000             2
    0.08333333333333    0.41666666666667    0.50000000000000             4
    0.16666666666667    0.41666666666667    0.50000000000000             2
    0.00000000000000    0.50000000000000    0.50000000000000             1
    0.000000    0.000000    0.000000   0.0
    0.012821    0.000000    0.000000   0.0
    0.025641    0.000000    0.000000   0.0 
    0.038462    0.000000    0.000000   0.0 
    0.051282    0.000000    0.000000   0.0 
    0.064103    0.000000    0.000000   0.0 
    0.076923    0.000000    0.000000   0.0 
    0.089744    0.000000    0.000000   0.0 
    0.102564    0.000000    0.000000   0.0 
    0.115385    0.000000    0.000000   0.0 
    0.128205    0.000000    0.000000   0.0 
    0.141026    0.000000    0.000000   0.0 
    0.153846    0.000000    0.000000   0.0 
    0.166667    0.000000    0.000000   0.0 
    0.179487    0.000000    0.000000   0.0 
    0.192308    0.000000    0.000000   0.0 
    0.205128    0.000000    0.000000   0.0 
    0.217949    0.000000    0.000000   0.0 
    0.230769    0.000000    0.000000   0.0 
    0.243590    0.000000    0.000000   0.0 
    0.256410    0.000000    0.000000   0.0 
    0.269231    0.000000    0.000000   0.0 
    0.282051    0.000000    0.000000   0.0 
    0.294872    0.000000    0.000000   0.0 
    0.307692    0.000000    0.000000   0.0 
    0.320513    0.000000    0.000000   0.0 
    0.333333    0.000000    0.000000   0.0 
    0.346154    0.000000    0.000000   0.0 
    0.358974    0.000000    0.000000   0.0 
    0.371795    0.000000    0.000000   0.0 
    0.384615    0.000000    0.000000   0.0 
    0.397436    0.000000    0.000000   0.0 
    0.410256    0.000000    0.000000   0.0 
    0.423077    0.000000    0.000000   0.0 
    0.435897    0.000000    0.000000   0.0 
    0.448718    0.000000    0.000000   0.0 
    0.461538    0.000000    0.000000   0.0 
    0.474359    0.000000    0.000000   0.0 
    0.487179    0.000000    0.000000   0.0 
    0.500000    0.000000    0.000000   0.0 
    0.492752    0.014491    0.000000   0.0 
    0.485504    0.028983    0.000000   0.0 
    0.478257    0.043474    0.000000   0.0 
    0.471009    0.057965    0.000000   0.0 
    0.463761    0.072457    0.000000   0.0 
    0.456513    0.086948    0.000000   0.0 
    0.449265    0.101439    0.000000   0.0 
    0.442017    0.115930    0.000000   0.0 
    0.434770    0.130422    0.000000   0.0 
    0.427522    0.144913    0.000000   0.0 
    0.420274    0.159404    0.000000   0.0 
    0.413026    0.173896    0.000000   0.0 
    0.405778    0.188387    0.000000   0.0 
    0.398530    0.202878    0.000000   0.0 
    0.391283    0.217370    0.000000   0.0 
    0.384035    0.231861    0.000000   0.0 
    0.376787    0.246352    0.000000   0.0 
    0.369539    0.260843    0.000000   0.0 
    0.362291    0.275335    0.000000   0.0 
    0.355043    0.289826    0.000000   0.0 
    0.347796    0.304317    0.000000   0.0 
    0.340548    0.318809    0.000000   0.0 
    0.333300    0.333300    0.000000   0.0 
    0.325893    0.325893    0.000000   0.0 
    0.318487    0.318487    0.000000   0.0 
    0.311080    0.311080    0.000000   0.0 
    0.303673    0.303673    0.000000   0.0 
    0.296267    0.296267    0.000000   0.0 
    0.288860    0.288860    0.000000   0.0 
    0.281453    0.281453    0.000000   0.0 
    0.274047    0.274047    0.000000   0.0 
    0.266640    0.266640    0.000000   0.0 
    0.259233    0.259233    0.000000   0.0 
    0.251827    0.251827    0.000000   0.0 
    0.244420    0.244420    0.000000   0.0 
    0.237013    0.237013    0.000000   0.0 
    0.229607    0.229607    0.000000   0.0 
    0.222200    0.222200    0.000000   0.0 
    0.214793    0.214793    0.000000   0.0 
    0.207387    0.207387    0.000000   0.0 
    0.199980    0.199980    0.000000   0.0 
    0.192573    0.192573    0.000000   0.0 
    0.185167    0.185167    0.000000   0.0 
    0.177760    0.177760    0.000000   0.0 
    0.170353    0.170353    0.000000   0.0 
    0.162947    0.162947    0.000000   0.0 
    0.155540    0.155540    0.000000   0.0 
    0.148133    0.148133    0.000000   0.0 
    0.140727    0.140727    0.000000   0.0 
    0.133320    0.133320    0.000000   0.0 
    0.125913    0.125913    0.000000   0.0 
    0.118507    0.118507    0.000000   0.0 
    0.111100    0.111100    0.000000   0.0 
    0.103693    0.103693    0.000000   0.0 
    0.096287    0.096287    0.000000   0.0 
    0.088880    0.088880    0.000000   0.0 
    0.081473    0.081473    0.000000   0.0 
    0.074067    0.074067    0.000000   0.0 
    0.066660    0.066660    0.000000   0.0 
    0.059253    0.059253    0.000000   0.0 
    0.051847    0.051847    0.000000   0.0 
    0.044440    0.044440    0.000000   0.0 
    0.037033    0.037033    0.000000   0.0 
    0.029627    0.029627    0.000000   0.0 
    0.022220    0.022220    0.000000   0.0 
    0.014813    0.014813    0.000000   0.0 
    0.007407    0.007407    0.000000   0.0 
    0.000000    0.000000    0.000000   0.0 
    0.000000    0.000000    0.023810   0.0 
    0.000000    0.000000    0.047619   0.0 
    0.000000    0.000000    0.071429   0.0 
    0.000000    0.000000    0.095238   0.0 
    0.000000    0.000000    0.119048   0.0 
    0.000000    0.000000    0.142857   0.0 
    0.000000    0.000000    0.166667   0.0 
    0.000000    0.000000    0.190476   0.0 
    0.000000    0.000000    0.214286   0.0 
    0.000000    0.000000    0.238095   0.0 
    0.000000    0.000000    0.261905   0.0 
    0.000000    0.000000    0.285714   0.0 
    0.000000    0.000000    0.309524   0.0 
    0.000000    0.000000    0.333333   0.0 
    0.000000    0.000000    0.357143   0.0 
    0.000000    0.000000    0.380952   0.0 
    0.000000    0.000000    0.404762   0.0 
    0.000000    0.000000    0.428571   0.0 
    0.000000    0.000000    0.452381   0.0 
    0.000000    0.000000    0.476190   0.0 
    0.000000    0.000000    0.500000   0.0 
    0.012821    0.000000    0.500000   0.0 
    0.025641    0.000000    0.500000   0.0 
    0.038462    0.000000    0.500000   0.0 
    0.051282    0.000000    0.500000   0.0 
    0.064103    0.000000    0.500000   0.0 
    0.076923    0.000000    0.500000   0.0 
    0.089744    0.000000    0.500000   0.0 
    0.102564    0.000000    0.500000   0.0 
    0.115385    0.000000    0.500000   0.0 
    0.128205    0.000000    0.500000   0.0 
    0.141026    0.000000    0.500000   0.0 
    0.153846    0.000000    0.500000   0.0 
    0.166667    0.000000    0.500000   0.0 
    0.179487    0.000000    0.500000   0.0 
    0.192308    0.000000    0.500000   0.0 
    0.205128    0.000000    0.500000   0.0 
    0.217949    0.000000    0.500000   0.0 
    0.230769    0.000000    0.500000   0.0 
    0.243590    0.000000    0.500000   0.0 
    0.256410    0.000000    0.500000   0.0 
    0.269231    0.000000    0.500000   0.0 
    0.282051    0.000000    0.500000   0.0 
    0.294872    0.000000    0.500000   0.0 
    0.307692    0.000000    0.500000   0.0 
    0.320513    0.000000    0.500000   0.0 
    0.333333    0.000000    0.500000   0.0 
    0.346154    0.000000    0.500000   0.0 
    0.358974    0.000000    0.500000   0.0 
    0.371795    0.000000    0.500000   0.0 
    0.384615    0.000000    0.500000   0.0 
    0.397436    0.000000    0.500000   0.0 
    0.410256    0.000000    0.500000   0.0 
    0.423077    0.000000    0.500000   0.0 
    0.435897    0.000000    0.500000   0.0 
    0.448718    0.000000    0.500000   0.0 
    0.461538    0.000000    0.500000   0.0 
    0.474359    0.000000    0.500000   0.0 
    0.487179    0.000000    0.500000   0.0 
    0.500000    0.000000    0.500000   0.0 
    0.492752    0.014491    0.500000   0.0 
    0.485504    0.028983    0.500000   0.0 
    0.478257    0.043474    0.500000   0.0 
    0.471009    0.057965    0.500000   0.0 
    0.463761    0.072457    0.500000   0.0 
    0.456513    0.086948    0.500000   0.0 
    0.449265    0.101439    0.500000   0.0 
    0.442017    0.115930    0.500000   0.0 
    0.434770    0.130422    0.500000   0.0 
    0.427522    0.144913    0.500000   0.0 
    0.420274    0.159404    0.500000   0.0 
    0.413026    0.173896    0.500000   0.0 
    0.405778    0.188387    0.500000   0.0 
    0.398530    0.202878    0.500000   0.0 
    0.391283    0.217370    0.500000   0.0 
    0.384035    0.231861    0.500000   0.0 
    0.376787    0.246352    0.500000   0.0 
    0.369539    0.260843    0.500000   0.0 
    0.362291    0.275335    0.500000   0.0 
    0.355043    0.289826    0.500000   0.0 
    0.347796    0.304317    0.500000   0.0 
    0.340548    0.318809    0.500000   0.0 
    0.333300    0.333300    0.500000   0.0 
    0.325893    0.325893    0.500000   0.0 
    0.318487    0.318487    0.500000   0.0 
    0.311080    0.311080    0.500000   0.0 
    0.303673    0.303673    0.500000   0.0 
    0.296267    0.296267    0.500000   0.0 
    0.288860    0.288860    0.500000   0.0 
    0.281453    0.281453    0.500000   0.0 
    0.274047    0.274047    0.500000   0.0 
    0.266640    0.266640    0.500000   0.0 
    0.259233    0.259233    0.500000   0.0 
    0.251827    0.251827    0.500000   0.0 
    0.244420    0.244420    0.500000   0.0 
    0.237013    0.237013    0.500000   0.0 
    0.229607    0.229607    0.500000   0.0 
    0.222200    0.222200    0.500000   0.0 
    0.214793    0.214793    0.500000   0.0 
    0.207387    0.207387    0.500000   0.0 
    0.199980    0.199980    0.500000   0.0 
    0.192573    0.192573    0.500000   0.0 
    0.185167    0.185167    0.500000   0.0 
    0.177760    0.177760    0.500000   0.0 
    0.170353    0.170353    0.500000   0.0 
    0.162947    0.162947    0.500000   0.0 
    0.155540    0.155540    0.500000   0.0 
    0.148133    0.148133    0.500000   0.0 
    0.140727    0.140727    0.500000   0.0 
    0.133320    0.133320    0.500000   0.0 
    0.125913    0.125913    0.500000   0.0 
    0.118507    0.118507    0.500000   0.0 
    0.111100    0.111100    0.500000   0.0 
    0.103693    0.103693    0.500000   0.0 
    0.096287    0.096287    0.500000   0.0 
    0.088880    0.088880    0.500000   0.0 
    0.081473    0.081473    0.500000   0.0 
    0.074067    0.074067    0.500000   0.0 
    0.066660    0.066660    0.500000   0.0 
    0.059253    0.059253    0.500000   0.0 
    0.051847    0.051847    0.500000   0.0 
    0.044440    0.044440    0.500000   0.0 
    0.037033    0.037033    0.500000   0.0 
    0.029627    0.029627    0.500000   0.0 
    0.022220    0.022220    0.500000   0.0 
    0.014813    0.014813    0.500000   0.0 
    0.007407    0.007407    0.500000   0.0 
    0.000000    0.000000    0.500000   0.0 
    0.012821    0.000000    0.500000   0.0 
    0.025641    0.000000    0.500000   0.0 
    0.038462    0.000000    0.500000   0.0 
    0.051282    0.000000    0.500000   0.0 
    0.064103    0.000000    0.500000   0.0 
    0.076923    0.000000    0.500000   0.0 
    0.089744    0.000000    0.500000   0.0 
    0.102564    0.000000    0.500000   0.0 
    0.115385    0.000000    0.500000   0.0 
    0.128205    0.000000    0.500000   0.0 
    0.141026    0.000000    0.500000   0.0 
    0.153846    0.000000    0.500000   0.0 
    0.166667    0.000000    0.500000   0.0 
    0.179487    0.000000    0.500000   0.0 
    0.192308    0.000000    0.500000   0.0 
    0.205128    0.000000    0.500000   0.0 
    0.217949    0.000000    0.500000   0.0 
    0.230769    0.000000    0.500000   0.0 
    0.243590    0.000000    0.500000   0.0 
    0.256410    0.000000    0.500000   0.0 
    0.269231    0.000000    0.500000   0.0 
    0.282051    0.000000    0.500000   0.0 
    0.294872    0.000000    0.500000   0.0 
    0.307692    0.000000    0.500000   0.0 
    0.320513    0.000000    0.500000   0.0 
    0.333333    0.000000    0.500000   0.0 
    0.346154    0.000000    0.500000   0.0 
    0.358974    0.000000    0.500000   0.0 
    0.371795    0.000000    0.500000   0.0 
    0.384615    0.000000    0.500000   0.0 
    0.397436    0.000000    0.500000   0.0 
    0.410256    0.000000    0.500000   0.0 