New Structure
1.0
     3.1900000000       0.0000000000       0.0000000000
    -1.5950000000       2.7626210381       0.0000000000
     0.0000000000       0.0000000000       5.9450000000
Mo S
1 2
Direct
     0.000000000     0.000000000     0.000000000  !Mo
     0.333300000     0.666700000     0.248800000  !S
     0.666600000     0.333300000     0.751200000  !S

