SYSTEM=HfS2

ISMEAR=-5

LCHARG=.TRUE.

ISTART=1
LHFCALC= .TRUE.
HFSCREEN=0.2
ALGO=Damped
TIME=0.4
PREFOCK=FAST
ENCUT = 500 
EDIFF=1e-8
NELMIN=3
NKRED=2

ISYM=-1
ISIF=1
IBRION=-1
LEPSILON=.FALSE.

LWANNIER90=.TRUE.
LWRITE_UNK = .TRUE.
