HfS21977.cif                            
   1.00000000000000     
     3.6219999999999999    0.0000000000000000    0.0000000000000000
    -1.8109999999999999    3.1367440124999999    0.0000000000000000
     0.0000000000000000    0.0000000000000000    5.8479999999999999
   Hf   S 
     1     2
Direct
  0.0000000000000000  0.0000000000000000  0.0000000000000000
  0.3333000000000013  0.6666999999999987  0.2445067937565710
  0.6666000000000025  0.3333000000000013  0.7554932062434290
 
  0.00000000E+00  0.00000000E+00  0.00000000E+00
  0.00000000E+00  0.00000000E+00  0.00000000E+00
  0.00000000E+00  0.00000000E+00  0.00000000E+00
