 num_bands =    24  ! set to NBANDS by VASP 
 num_wann =    13  ! set to NBANDS by VASP

Begin Projections
  Hf:d
  S:s
  S:p
End Projections

begin kpoint_path
G 0 0 0   M 0.5 0 0               
M 0.5 0 0 K 0.3333 0.3333 0
K 0.3333 0.3333 0 G 0 0 0
G 0 0 0 A 0 0 0.5
A 0 0 0.5 L 0.5 0 0.5
L 0.5 0 0.5 H 0.3333 0.3333 0.5
H 0.3333 0.3333 0.5 A 0 0 0.5
A 0 0 0.5 L 0.5 0 0.5
L 0.5 0 0.5 M 0.5 0 0 
end kpoint_path

bands_num_points 50
bands_plot_format gnuplot xmgrace

bands_plot = T

dis_win_max = 20
dis_froz_max = 5
dis_froz_min = -5
dis_win_min = -20

dis_num_iter = 500
num_iter = 5000

dos = true
dos_kmesh = 30
dos_energy_min = -5
dos_energy_max = 10
dos_energy_step = 0.01

dos_project = 6-13

wannier_plot = true
wannier_plot_supercell = 3


begin unit_cell_cart
     3.6220000     0.0000000     0.0000000
    -1.8110000     3.1367440     0.0000000
     0.0000000     0.0000000     5.8480000
end unit_cell_cart

begin atoms_cart
Hf       0.0362200     0.0000000     0.0000000
S       -0.0001811     2.0912672     1.4298757
S        1.8108189     1.0454768     4.4181243
end atoms_cart

mp_grid =     8     8     4

begin kpoints
      0.000000000000      0.000000000000      0.000000000000
      0.125000000000      0.000000000000      0.000000000000
      0.250000000000      0.000000000000      0.000000000000
      0.375000000000      0.000000000000      0.000000000000
      0.500000000000      0.000000000000      0.000000000000
     -0.375000000000     -0.000000000000      0.000000000000
     -0.250000000000     -0.000000000000      0.000000000000
     -0.125000000000     -0.000000000000      0.000000000000
      0.000000000000      0.125000000000      0.000000000000
      0.125000000000      0.125000000000      0.000000000000
      0.250000000000      0.125000000000      0.000000000000
      0.375000000000      0.125000000000      0.000000000000
      0.500000000000      0.125000000000      0.000000000000
     -0.375000000000      0.125000000000      0.000000000000
     -0.250000000000      0.125000000000      0.000000000000
     -0.125000000000      0.125000000000      0.000000000000
      0.000000000000      0.250000000000      0.000000000000
      0.125000000000      0.250000000000      0.000000000000
      0.250000000000      0.250000000000      0.000000000000
      0.375000000000      0.250000000000      0.000000000000
      0.500000000000      0.250000000000      0.000000000000
     -0.375000000000      0.250000000000      0.000000000000
     -0.250000000000      0.250000000000      0.000000000000
     -0.125000000000      0.250000000000      0.000000000000
      0.000000000000      0.375000000000      0.000000000000
      0.125000000000      0.375000000000      0.000000000000
      0.250000000000      0.375000000000      0.000000000000
      0.375000000000      0.375000000000      0.000000000000
      0.500000000000      0.375000000000      0.000000000000
     -0.375000000000      0.375000000000      0.000000000000
     -0.250000000000      0.375000000000      0.000000000000
     -0.125000000000      0.375000000000      0.000000000000
      0.000000000000      0.500000000000      0.000000000000
      0.125000000000      0.500000000000      0.000000000000
      0.250000000000      0.500000000000      0.000000000000
      0.375000000000      0.500000000000      0.000000000000
      0.500000000000      0.500000000000      0.000000000000
     -0.375000000000      0.500000000000      0.000000000000
     -0.250000000000      0.500000000000      0.000000000000
     -0.125000000000      0.500000000000      0.000000000000
      0.000000000000     -0.375000000000      0.000000000000
      0.125000000000     -0.375000000000      0.000000000000
      0.250000000000     -0.375000000000      0.000000000000
      0.375000000000     -0.375000000000      0.000000000000
      0.500000000000     -0.375000000000      0.000000000000
     -0.375000000000     -0.375000000000      0.000000000000
     -0.250000000000     -0.375000000000      0.000000000000
     -0.125000000000     -0.375000000000      0.000000000000
      0.000000000000     -0.250000000000      0.000000000000
      0.125000000000     -0.250000000000      0.000000000000
      0.250000000000     -0.250000000000      0.000000000000
      0.375000000000     -0.250000000000      0.000000000000
      0.500000000000     -0.250000000000      0.000000000000
     -0.375000000000     -0.250000000000      0.000000000000
     -0.250000000000     -0.250000000000      0.000000000000
     -0.125000000000     -0.250000000000      0.000000000000
      0.000000000000     -0.125000000000      0.000000000000
      0.125000000000     -0.125000000000      0.000000000000
      0.250000000000     -0.125000000000      0.000000000000
      0.375000000000     -0.125000000000      0.000000000000
      0.500000000000     -0.125000000000      0.000000000000
     -0.375000000000     -0.125000000000      0.000000000000
     -0.250000000000     -0.125000000000      0.000000000000
     -0.125000000000     -0.125000000000      0.000000000000
      0.000000000000      0.000000000000      0.250000000000
      0.125000000000      0.000000000000      0.250000000000
      0.250000000000      0.000000000000      0.250000000000
      0.375000000000      0.000000000000      0.250000000000
      0.500000000000      0.000000000000      0.250000000000
     -0.375000000000     -0.000000000000      0.250000000000
     -0.250000000000     -0.000000000000      0.250000000000
     -0.125000000000     -0.000000000000      0.250000000000
      0.000000000000      0.125000000000      0.250000000000
      0.125000000000      0.125000000000      0.250000000000
      0.250000000000      0.125000000000      0.250000000000
      0.375000000000      0.125000000000      0.250000000000
      0.500000000000      0.125000000000      0.250000000000
     -0.375000000000      0.125000000000      0.250000000000
     -0.250000000000      0.125000000000      0.250000000000
     -0.125000000000      0.125000000000      0.250000000000
      0.000000000000      0.250000000000      0.250000000000
      0.125000000000      0.250000000000      0.250000000000
      0.250000000000      0.250000000000      0.250000000000
      0.375000000000      0.250000000000      0.250000000000
      0.500000000000      0.250000000000      0.250000000000
     -0.375000000000      0.250000000000      0.250000000000
     -0.250000000000      0.250000000000      0.250000000000
     -0.125000000000      0.250000000000      0.250000000000
      0.000000000000      0.375000000000      0.250000000000
      0.125000000000      0.375000000000      0.250000000000
      0.250000000000      0.375000000000      0.250000000000
      0.375000000000      0.375000000000      0.250000000000
      0.500000000000      0.375000000000      0.250000000000
     -0.375000000000      0.375000000000      0.250000000000
     -0.250000000000      0.375000000000      0.250000000000
     -0.125000000000      0.375000000000      0.250000000000
      0.000000000000      0.500000000000      0.250000000000
      0.125000000000      0.500000000000      0.250000000000
      0.250000000000      0.500000000000      0.250000000000
      0.375000000000      0.500000000000      0.250000000000
      0.500000000000      0.500000000000      0.250000000000
     -0.375000000000      0.500000000000      0.250000000000
     -0.250000000000      0.500000000000      0.250000000000
     -0.125000000000      0.500000000000      0.250000000000
      0.000000000000     -0.375000000000      0.250000000000
      0.125000000000     -0.375000000000      0.250000000000
      0.250000000000     -0.375000000000      0.250000000000
      0.375000000000     -0.375000000000      0.250000000000
      0.500000000000     -0.375000000000      0.250000000000
     -0.375000000000     -0.375000000000      0.250000000000
     -0.250000000000     -0.375000000000      0.250000000000
     -0.125000000000     -0.375000000000      0.250000000000
      0.000000000000     -0.250000000000      0.250000000000
      0.125000000000     -0.250000000000      0.250000000000
      0.250000000000     -0.250000000000      0.250000000000
      0.375000000000     -0.250000000000      0.250000000000
      0.500000000000     -0.250000000000      0.250000000000
     -0.375000000000     -0.250000000000      0.250000000000
     -0.250000000000     -0.250000000000      0.250000000000
     -0.125000000000     -0.250000000000      0.250000000000
      0.000000000000     -0.125000000000      0.250000000000
      0.125000000000     -0.125000000000      0.250000000000
      0.250000000000     -0.125000000000      0.250000000000
      0.375000000000     -0.125000000000      0.250000000000
      0.500000000000     -0.125000000000      0.250000000000
     -0.375000000000     -0.125000000000      0.250000000000
     -0.250000000000     -0.125000000000      0.250000000000
     -0.125000000000     -0.125000000000      0.250000000000
      0.000000000000      0.000000000000      0.500000000000
      0.125000000000      0.000000000000      0.500000000000
      0.250000000000      0.000000000000      0.500000000000
      0.375000000000      0.000000000000      0.500000000000
      0.500000000000      0.000000000000      0.500000000000
     -0.375000000000     -0.000000000000      0.500000000000
     -0.250000000000     -0.000000000000      0.500000000000
     -0.125000000000     -0.000000000000      0.500000000000
      0.000000000000      0.125000000000      0.500000000000
      0.125000000000      0.125000000000      0.500000000000
      0.250000000000      0.125000000000      0.500000000000
      0.375000000000      0.125000000000      0.500000000000
      0.500000000000      0.125000000000      0.500000000000
     -0.375000000000      0.125000000000      0.500000000000
     -0.250000000000      0.125000000000      0.500000000000
     -0.125000000000      0.125000000000      0.500000000000
      0.000000000000      0.250000000000      0.500000000000
      0.125000000000      0.250000000000      0.500000000000
      0.250000000000      0.250000000000      0.500000000000
      0.375000000000      0.250000000000      0.500000000000
      0.500000000000      0.250000000000      0.500000000000
     -0.375000000000      0.250000000000      0.500000000000
     -0.250000000000      0.250000000000      0.500000000000
     -0.125000000000      0.250000000000      0.500000000000
      0.000000000000      0.375000000000      0.500000000000
      0.125000000000      0.375000000000      0.500000000000
      0.250000000000      0.375000000000      0.500000000000
      0.375000000000      0.375000000000      0.500000000000
      0.500000000000      0.375000000000      0.500000000000
     -0.375000000000      0.375000000000      0.500000000000
     -0.250000000000      0.375000000000      0.500000000000
     -0.125000000000      0.375000000000      0.500000000000
      0.000000000000      0.500000000000      0.500000000000
      0.125000000000      0.500000000000      0.500000000000
      0.250000000000      0.500000000000      0.500000000000
      0.375000000000      0.500000000000      0.500000000000
      0.500000000000      0.500000000000      0.500000000000
     -0.375000000000      0.500000000000      0.500000000000
     -0.250000000000      0.500000000000      0.500000000000
     -0.125000000000      0.500000000000      0.500000000000
      0.000000000000     -0.375000000000      0.500000000000
      0.125000000000     -0.375000000000      0.500000000000
      0.250000000000     -0.375000000000      0.500000000000
      0.375000000000     -0.375000000000      0.500000000000
      0.500000000000     -0.375000000000      0.500000000000
     -0.375000000000     -0.375000000000      0.500000000000
     -0.250000000000     -0.375000000000      0.500000000000
     -0.125000000000     -0.375000000000      0.500000000000
      0.000000000000     -0.250000000000      0.500000000000
      0.125000000000     -0.250000000000      0.500000000000
      0.250000000000     -0.250000000000      0.500000000000
      0.375000000000     -0.250000000000      0.500000000000
      0.500000000000     -0.250000000000      0.500000000000
     -0.375000000000     -0.250000000000      0.500000000000
     -0.250000000000     -0.250000000000      0.500000000000
     -0.125000000000     -0.250000000000      0.500000000000
      0.000000000000     -0.125000000000      0.500000000000
      0.125000000000     -0.125000000000      0.500000000000
      0.250000000000     -0.125000000000      0.500000000000
      0.375000000000     -0.125000000000      0.500000000000
      0.500000000000     -0.125000000000      0.500000000000
     -0.375000000000     -0.125000000000      0.500000000000
     -0.250000000000     -0.125000000000      0.500000000000
     -0.125000000000     -0.125000000000      0.500000000000
      0.000000000000      0.000000000000     -0.250000000000
      0.125000000000      0.000000000000     -0.250000000000
      0.250000000000      0.000000000000     -0.250000000000
      0.375000000000      0.000000000000     -0.250000000000
      0.500000000000      0.000000000000     -0.250000000000
     -0.375000000000     -0.000000000000     -0.250000000000
     -0.250000000000     -0.000000000000     -0.250000000000
     -0.125000000000     -0.000000000000     -0.250000000000
      0.000000000000      0.125000000000     -0.250000000000
      0.125000000000      0.125000000000     -0.250000000000
      0.250000000000      0.125000000000     -0.250000000000
      0.375000000000      0.125000000000     -0.250000000000
      0.500000000000      0.125000000000     -0.250000000000
     -0.375000000000      0.125000000000     -0.250000000000
     -0.250000000000      0.125000000000     -0.250000000000
     -0.125000000000      0.125000000000     -0.250000000000
      0.000000000000      0.250000000000     -0.250000000000
      0.125000000000      0.250000000000     -0.250000000000
      0.250000000000      0.250000000000     -0.250000000000
      0.375000000000      0.250000000000     -0.250000000000
      0.500000000000      0.250000000000     -0.250000000000
     -0.375000000000      0.250000000000     -0.250000000000
     -0.250000000000      0.250000000000     -0.250000000000
     -0.125000000000      0.250000000000     -0.250000000000
      0.000000000000      0.375000000000     -0.250000000000
      0.125000000000      0.375000000000     -0.250000000000
      0.250000000000      0.375000000000     -0.250000000000
      0.375000000000      0.375000000000     -0.250000000000
      0.500000000000      0.375000000000     -0.250000000000
     -0.375000000000      0.375000000000     -0.250000000000
     -0.250000000000      0.375000000000     -0.250000000000
     -0.125000000000      0.375000000000     -0.250000000000
      0.000000000000      0.500000000000     -0.250000000000
      0.125000000000      0.500000000000     -0.250000000000
      0.250000000000      0.500000000000     -0.250000000000
      0.375000000000      0.500000000000     -0.250000000000
      0.500000000000      0.500000000000     -0.250000000000
     -0.375000000000      0.500000000000     -0.250000000000
     -0.250000000000      0.500000000000     -0.250000000000
     -0.125000000000      0.500000000000     -0.250000000000
      0.000000000000     -0.375000000000     -0.250000000000
      0.125000000000     -0.375000000000     -0.250000000000
      0.250000000000     -0.375000000000     -0.250000000000
      0.375000000000     -0.375000000000     -0.250000000000
      0.500000000000     -0.375000000000     -0.250000000000
     -0.375000000000     -0.375000000000     -0.250000000000
     -0.250000000000     -0.375000000000     -0.250000000000
     -0.125000000000     -0.375000000000     -0.250000000000
      0.000000000000     -0.250000000000     -0.250000000000
      0.125000000000     -0.250000000000     -0.250000000000
      0.250000000000     -0.250000000000     -0.250000000000
      0.375000000000     -0.250000000000     -0.250000000000
      0.500000000000     -0.250000000000     -0.250000000000
     -0.375000000000     -0.250000000000     -0.250000000000
     -0.250000000000     -0.250000000000     -0.250000000000
     -0.125000000000     -0.250000000000     -0.250000000000
      0.000000000000     -0.125000000000     -0.250000000000
      0.125000000000     -0.125000000000     -0.250000000000
      0.250000000000     -0.125000000000     -0.250000000000
      0.375000000000     -0.125000000000     -0.250000000000
      0.500000000000     -0.125000000000     -0.250000000000
     -0.375000000000     -0.125000000000     -0.250000000000
     -0.250000000000     -0.125000000000     -0.250000000000
     -0.125000000000     -0.125000000000     -0.250000000000
end kpoints
