SYSTEM=HfS2

ISMEAR=-5

ISTART=1
LHFCALC= .TRUE.
HFSCREEN=0.2
ALGO=NORMAL
IMIX=1
AMIX=0.4

ENCUT = 500 
EDIFF=1e-8
NELMIN=10
NKRED=2

ISYM=-1
#SYMPREC=5e-3
ISIF=1
IBRION=6
LCALCEPS=.TRUE.
EFIELD_PEAD=0.002 0.002 0.01

KPAR=8
